14,0	0,0	5,9	11,2	0,0	0,0	0,0	0,0	0,0	8,9
14,4	8,5	0,0	18,0	8,7	0,0	0,0	6,7	0,0	0,0
0,0	0,0	15,2	0,0	7,1	13,9	0,0	0,0	7,3	0,0
8,8	0,0	13,0	0,0	0,0	0,0	18,3	0,0	0,0	0,0
0,0	19,5	0,0	10,0	11,3	0,0	0,0	18,4	0,0	0,0
0,0	15,9	12,4	0,0	7,8	17,9	0,0	0,0	6,6	0,0
0,0	11,0	0,0	6,8	0,0	0,0	7,5	0,0	0,0	6,6
19,6	0,0	8,1	0,0	0,0	0,0	0,0	0,0	0,0	15,6
0,0	9,1	0,0	14,7	10,8	0,0	0,0	9,2	0,0	0,0
0,0	0,0	16,4	0,0	0,0	5,5	9,2	0,0	0,0	8,2
									
4,9	3,3	3,4	3,1	3,6	4,2	4,4	3,8	4,4	5,0
